Set parameter TokenServer to value "hpc-licenses.hpcc.usc.edu"
Set parameter TimeLimit to value 3600
Gurobi Optimizer version 9.5.1 build v9.5.1rc2 (linux64)
Thread count: 20 physical cores, 20 logical processors, using up to 20 threads
Optimize a model with 6006 rows, 4529 columns and 23034 nonzeros
Model fingerprint: 0x35b020ff
Variable types: 4506 continuous, 23 integer (23 binary)
Coefficient statistics:
  Matrix range     [1e+00, 1e+00]
  Objective range  [6e-03, 1e+00]
  Bounds range     [1e+00, 1e+00]
  RHS range        [1e+00, 1e+00]
Presolve removed 1514 rows and 1511 columns
Presolve time: 0.08s
Presolved: 4492 rows, 3018 columns, 20497 nonzeros
Variable types: 2998 continuous, 20 integer (20 binary)
Found heuristic solution: objective 296.7636365

Root relaxation: objective 3.001583e+02, 2109 iterations, 0.09 seconds (0.08 work units)

    Nodes    |    Current Node    |     Objective Bounds      |     Work
 Expl Unexpl |  Obj  Depth IntInf | Incumbent    BestBd   Gap | It/Node Time

*    0     0               0     300.1583076  300.15831  0.00%     -    0s

Explored 1 nodes (2109 simplex iterations) in 0.24 seconds (0.15 work units)
Thread count was 20 (of 20 available processors)

Solution count 2: 300.158 296.764 

Optimal solution found (tolerance 1.00e-04)
Best objective 3.001583075823e+02, best bound 3.001583075823e+02, gap 0.0000%



#########node  1
V1.8
#########node  2
0.0,1.0
#########node  3
1.0,0.0


Total Solving Time 0.6785070896148682
obj value 300.1583075822667
Policy Regret train (Sum) 0.5246451196991215
Best Treatment Found train (%) 90.2
treatment classification acc train (%) 58.599999999999994
Policy Regret test (Sum) 110.93848330628616
Best Treatment Found test (%) 62.73
treatment classification acc test (%) 61.39
Set parameter TokenServer to value "hpc-licenses.hpcc.usc.edu"
Set parameter TimeLimit to value 3600
Gurobi Optimizer version 9.5.1 build v9.5.1rc2 (linux64)
Thread count: 20 physical cores, 20 logical processors, using up to 20 threads
Optimize a model with 6006 rows, 4529 columns and 23034 nonzeros
Model fingerprint: 0x35b020ff
Variable types: 4506 continuous, 23 integer (23 binary)
Coefficient statistics:
  Matrix range     [1e+00, 1e+00]
  Objective range  [6e-03, 1e+00]
  Bounds range     [1e+00, 1e+00]
  RHS range        [1e+00, 1e+00]
Presolve removed 1514 rows and 1511 columns
Presolve time: 0.05s
Presolved: 4492 rows, 3018 columns, 20497 nonzeros
Variable types: 2998 continuous, 20 integer (20 binary)
Found heuristic solution: objective 296.7636365

Root relaxation: objective 3.001583e+02, 2109 iterations, 0.06 seconds (0.08 work units)

    Nodes    |    Current Node    |     Objective Bounds      |     Work
 Expl Unexpl |  Obj  Depth IntInf | Incumbent    BestBd   Gap | It/Node Time

*    0     0               0     300.1583076  300.15831  0.00%     -    0s

Explored 1 nodes (2109 simplex iterations) in 0.16 seconds (0.15 work units)
Thread count was 20 (of 20 available processors)

Solution count 2: 300.158 296.764 

Optimal solution found (tolerance 1.00e-04)
Best objective 3.001583075823e+02, best bound 3.001583075823e+02, gap 0.0000%



#########node  1
V1.8
#########node  2
0.0,1.0
#########node  3
1.0,0.0


Total Solving Time 0.5262224674224854
obj value 300.1583075822667
Policy Regret train (Sum) 0.5246451196991215
Best Treatment Found train (%) 90.2
treatment classification acc train (%) 58.599999999999994
Policy Regret test (Sum) 110.93848330628616
Best Treatment Found test (%) 62.73
treatment classification acc test (%) 61.39
